CP/Instances/dzn/17x17.dzn
pr_w = 17;
pr_h = 17;

n_pieces = 12;

L = [|3, 3
     |3, 4
     |3, 5
     |3, 6
     |3, 7
     |3, 8
     |3, 9
     |4, 3
     |4, 8
     |4, 14
     |7, 3
     |7, 6
     |];