CP/src/17x17.txt
17 17
12
3 3
3 4
3 5
3 6
3 7
3 8
3 9
4 3
4 8
4 14
7 3
7 6



Compiling pwp_v6.mzn, with additional data 17x17.dzn 
% Generated FlatZinc statistics:
%%%mzn-stat: paths=0
%%%mzn-stat: flatBoolVars=264
%%%mzn-stat: flatIntVars=50
%%%mzn-stat: flatBoolConstraints=66
%%%mzn-stat: flatIntConstraints=292
%%%mzn-stat: evaluatedHalfReifiedConstraints=264
%%%mzn-stat: method="satisfy"
%%%mzn-stat: flatTime=0.167233
%%%mzn-stat-end

Running pwp_v6.mzn
qx = array1d(1..12, [14, 11, 4, 14, 11, 14, 4, 7, 7, 0, 0, 7]);
qy = array1d(1..12, [0, 0, 0, 3, 4, 9, 5, 0, 3, 0, 14, 11]);
----------
qx = array1d(1..12, [10, 7, 4, 14, 7, 14, 4, 13, 10, 0, 0, 7]);
qy = array1d(1..12, [0, 0, 0, 3, 4, 9, 5, 0, 3, 0, 14, 11]);
----------
qx = array1d(1..12, [14, 7, 4, 14, 7, 14, 4, 10, 10, 0, 0, 7]);
qy = array1d(1..12, [0, 0, 0, 3, 4, 9, 5, 0, 3, 0, 14, 11]);
----------
qx = array1d(1..12, [14, 11, 0, 14, 11, 14, 0, 7, 7, 3, 0, 7]);
qy = array1d(1..12, [0, 0, 0, 3, 4, 9, 5, 0, 3, 0, 14, 11]);
----------
qx = array1d(1..12, [10, 7, 0, 14, 7, 14, 0, 13, 10, 3, 0, 7]);
qy = array1d(1..12, [0, 0, 0, 3, 4, 9, 5, 0, 3, 0, 14, 11]);
----------
qx = array1d(1..12, [14, 7, 0, 14, 7, 14, 0, 10, 10, 3, 0, 7]);
qy = array1d(1..12, [0, 0, 0, 3, 4, 9, 5, 0, 3, 0, 14, 11]);
----------
qx = array1d(1..12, [11, 14, 4, 7, 14, 7, 4, 7, 10, 0, 0, 10]);
qy = array1d(1..12, [0, 0, 0, 3, 4, 9, 5, 0, 3, 0, 14, 11]);
----------
qx = array1d(1..12, [7, 14, 4, 7, 14, 7, 4, 10, 10, 0, 0, 10]);
qy = array1d(1..12, [0, 0, 0, 3, 4, 9, 5, 0, 3, 0, 14, 11]);
----------
qx = array1d(1..12, [7, 10, 4, 7, 10, 7, 4, 13, 13, 0, 0, 10]);
qy = array1d(1..12, [0, 0, 0, 3, 4, 9, 5, 0, 3, 0, 14, 11]);
----------
qx = array1d(1..12, [11, 14, 0, 7, 14, 7, 0, 7, 10, 3, 0, 10]);
qy = array1d(1..12, [0, 0, 0, 3, 4, 9, 5, 0, 3, 0, 14, 11]);
----------
qx = array1d(1..12, [7, 14, 0, 7, 14, 7, 0, 10, 10, 3, 0, 10]);
qy = array1d(1..12, [0, 0, 0, 3, 4, 9, 5, 0, 3, 0, 14, 11]);
----------
qx = array1d(1..12, [7, 10, 0, 7, 10, 7, 0, 13, 13, 3, 0, 10]);
qy = array1d(1..12, [0, 0, 0, 3, 4, 9, 5, 0, 3, 0, 14, 11]);
----------
qx = array1d(1..12, [0, 14, 7, 0, 14, 0, 7, 10, 10, 3, 3, 10]);
qy = array1d(1..12, [0, 0, 0, 3, 4, 9, 5, 0, 3, 0, 14, 11]);
----------
qx = array1d(1..12, [0, 10, 7, 0, 10, 0, 7, 13, 13, 3, 3, 10]);
qy = array1d(1..12, [0, 0, 0, 3, 4, 9, 5, 0, 3, 0, 14, 11]);
----------
qx = array1d(1..12, [0, 14, 3, 0, 14, 0, 3, 10, 10, 6, 3, 10]);
qy = array1d(1..12, [0, 0, 0, 3, 4, 9, 5, 0, 3, 0, 14, 11]);
----------
qx = array1d(1..12, [0, 10, 3, 0, 10, 0, 3, 13, 13, 6, 3, 10]);
qy = array1d(1..12, [0, 0, 0, 3, 4, 9, 5, 0, 3, 0, 14, 11]);
----------
qx = array1d(1..12, [14, 11, 4, 14, 11, 14, 4, 7, 7, 0, 0, 7]);
qy = array1d(1..12, [0, 0, 0, 3, 4, 9, 5, 8, 0, 0, 14, 11]);
----------
qx = array1d(1..12, [14, 7, 4, 14, 7, 14, 4, 10, 10, 0, 0, 7]);
qy = array1d(1..12, [0, 0, 0, 3, 4, 9, 5, 8, 0, 0, 14, 11]);
----------
qx = array1d(1..12, [14, 11, 0, 14, 11, 14, 0, 7, 7, 3, 0, 7]);
qy = array1d(1..12, [0, 0, 0, 3, 4, 9, 5, 8, 0, 0, 14, 11]);
----------
qx = array1d(1..12, [14, 7, 0, 14, 7, 14, 0, 10, 10, 3, 0, 7]);
qy = array1d(1..12, [0, 0, 0, 3, 4, 9, 5, 8, 0, 0, 14, 11]);
----------
qx = array1d(1..12, [7, 14, 4, 7, 14, 7, 4, 10, 10, 0, 0, 10]);
qy = array1d(1..12, [0, 0, 0, 3, 4, 9, 5, 8, 0, 0, 14, 11]);
----------
qx = array1d(1..12, [7, 10, 4, 7, 10, 7, 4, 13, 13, 0, 0, 10]);
qy = array1d(1..12, [0, 0, 0, 3, 4, 9, 5, 8, 0, 0, 14, 11]);
----------
qx = array1d(1..12, [7, 14, 0, 7, 14, 7, 0, 10, 10, 3, 0, 10]);
qy = array1d(1..12, [0, 0, 0, 3, 4, 9, 5, 8, 0, 0, 14, 11]);
----------
qx = array1d(1..12, [7, 10, 0, 7, 10, 7, 0, 13, 13, 3, 0, 10]);
qy = array1d(1..12, [0, 0, 0, 3, 4, 9, 5, 8, 0, 0, 14, 11]);
----------
qx = array1d(1..12, [0, 14, 7, 0, 14, 0, 7, 10, 10, 3, 3, 10]);
qy = array1d(1..12, [0, 0, 0, 3, 4, 9, 5, 8, 0, 0, 14, 11]);
----------
qx = array1d(1..12, [0, 10, 7, 0, 10, 0, 7, 13, 13, 3, 3, 10]);
qy = array1d(1..12, [0, 0, 0, 3, 4, 9, 5, 8, 0, 0, 14, 11]);
----------
qx = array1d(1..12, [0, 14, 3, 0, 14, 0, 3, 10, 10, 6, 3, 10]);
qy = array1d(1..12, [0, 0, 0, 3, 4, 9, 5, 8, 0, 0, 14, 11]);
----------
qx = array1d(1..12, [0, 10, 3, 0, 10, 0, 3, 13, 13, 6, 3, 10]);
qy = array1d(1..12, [0, 0, 0, 3, 4, 9, 5, 8, 0, 0, 14, 11]);
----------
qx = array1d(1..12, [11, 14, 4, 14, 14, 11, 4, 7, 7, 0, 0, 7]);
qy = array1d(1..12, [0, 0, 0, 4, 10, 3, 5, 0, 3, 0, 14, 11]);
----------
qx = array1d(1..12, [7, 14, 4, 14, 14, 11, 4, 10, 7, 0, 0, 7]);
qy = array1d(1..12, [0, 0, 0, 4, 10, 3, 5, 0, 3, 0, 14, 11]);
----------
qx = array1d(1..12, [11, 14, 4, 14, 14, 7, 4, 7, 10, 0, 0, 7]);
qy = array1d(1..12, [0, 0, 0, 4, 10, 3, 5, 0, 3, 0, 14, 11]);
----------
qx = array1d(1..12, [7, 14, 4, 14, 14, 7, 4, 10, 10, 0, 0, 7]);
qy = array1d(1..12, [0, 0, 0, 4, 10, 3, 5, 0, 3, 0, 14, 11]);
----------
qx = array1d(1..12, [11, 14, 0, 14, 14, 11, 0, 7, 7, 3, 0, 7]);
qy = array1d(1..12, [0, 0, 0, 4, 10, 3, 5, 0, 3, 0, 14, 11]);
----------
qx = array1d(1..12, [7, 14, 0, 14, 14, 11, 0, 10, 7, 3, 0, 7]);
qy = array1d(1..12, [0, 0, 0, 4, 10, 3, 5, 0, 3, 0, 14, 11]);
----------
qx = array1d(1..12, [11, 14, 0, 14, 14, 7, 0, 7, 10, 3, 0, 7]);
qy = array1d(1..12, [0, 0, 0, 4, 10, 3, 5, 0, 3, 0, 14, 11]);
----------
qx = array1d(1..12, [7, 14, 0, 14, 14, 7, 0, 10, 10, 3, 0, 7]);
qy = array1d(1..12, [0, 0, 0, 4, 10, 3, 5, 0, 3, 0, 14, 11]);
----------
qx = array1d(1..12, [14, 7, 4, 7, 7, 14, 4, 10, 10, 0, 0, 10]);
qy = array1d(1..12, [0, 0, 0, 4, 10, 3, 5, 0, 3, 0, 14, 11]);
----------
qx = array1d(1..12, [10, 7, 4, 7, 7, 14, 4, 13, 10, 0, 0, 10]);
qy = array1d(1..12, [0, 0, 0, 4, 10, 3, 5, 0, 3, 0, 14, 11]);
----------
qx = array1d(1..12, [14, 7, 4, 7, 7, 10, 4, 10, 13, 0, 0, 10]);
qy = array1d(1..12, [0, 0, 0, 4, 10, 3, 5, 0, 3, 0, 14, 11]);
----------
qx = array1d(1..12, [10, 7, 4, 7, 7, 10, 4, 13, 13, 0, 0, 10]);
qy = array1d(1..12, [0, 0, 0, 4, 10, 3, 5, 0, 3, 0, 14, 11]);
----------
qx = array1d(1..12, [14, 7, 0, 7, 7, 14, 0, 10, 10, 3, 0, 10]);
qy = array1d(1..12, [0, 0, 0, 4, 10, 3, 5, 0, 3, 0, 14, 11]);
----------
qx = array1d(1..12, [10, 7, 0, 7, 7, 14, 0, 13, 10, 3, 0, 10]);
qy = array1d(1..12, [0, 0, 0, 4, 10, 3, 5, 0, 3, 0, 14, 11]);
----------
qx = array1d(1..12, [14, 7, 0, 7, 7, 10, 0, 10, 13, 3, 0, 10]);
qy = array1d(1..12, [0, 0, 0, 4, 10, 3, 5, 0, 3, 0, 14, 11]);
----------
qx = array1d(1..12, [10, 7, 0, 7, 7, 10, 0, 13, 13, 3, 0, 10]);
qy = array1d(1..12, [0, 0, 0, 4, 10, 3, 5, 0, 3, 0, 14, 11]);
----------
qx = array1d(1..12, [14, 0, 7, 0, 0, 14, 7, 10, 10, 3, 3, 10]);
qy = array1d(1..12, [0, 0, 0, 4, 10, 3, 5, 0, 3, 0, 14, 11]);
----------
qx = array1d(1..12, [10, 0, 7, 0, 0, 14, 7, 13, 10, 3, 3, 10]);
qy = array1d(1..12, [0, 0, 0, 4, 10, 3, 5, 0, 3, 0, 14, 11]);
----------
qx = array1d(1..12, [14, 0, 7, 0, 0, 10, 7, 10, 13, 3, 3, 10]);
qy = array1d(1..12, [0, 0, 0, 4, 10, 3, 5, 0, 3, 0, 14, 11]);
----------
qx = array1d(1..12, [10, 0, 7, 0, 0, 10, 7, 13, 13, 3, 3, 10]);
qy = array1d(1..12, [0, 0, 0, 4, 10, 3, 5, 0, 3, 0, 14, 11]);
----------
qx = array1d(1..12, [14, 0, 3, 0, 0, 14, 3, 10, 10, 6, 3, 10]);
qy = array1d(1..12, [0, 0, 0, 4, 10, 3, 5, 0, 3, 0, 14, 11]);
----------
qx = array1d(1..12, [10, 0, 3, 0, 0, 14, 3, 13, 10, 6, 3, 10]);
qy = array1d(1..12, [0, 0, 0, 4, 10, 3, 5, 0, 3, 0, 14, 11]);
----------
qx = array1d(1..12, [14, 0, 3, 0, 0, 10, 3, 10, 13, 6, 3, 10]);
qy = array1d(1..12, [0, 0, 0, 4, 10, 3, 5, 0, 3, 0, 14, 11]);
----------
qx = array1d(1..12, [10, 0, 3, 0, 0, 10, 3, 13, 13, 6, 3, 10]);
qy = array1d(1..12, [0, 0, 0, 4, 10, 3, 5, 0, 3, 0, 14, 11]);
----------
qx = array1d(1..12, [11, 14, 4, 14, 14, 11, 4, 7, 7, 0, 0, 7]);
qy = array1d(1..12, [0, 0, 0, 4, 10, 3, 5, 8, 0, 0, 14, 11]);
----------
qx = array1d(1..12, [7, 14, 4, 14, 14, 7, 4, 10, 10, 0, 0, 7]);
qy = array1d(1..12, [0, 0, 0, 4, 10, 3, 5, 8, 0, 0, 14, 11]);
----------
qx = array1d(1..12, [11, 14, 0, 14, 14, 11, 0, 7, 7, 3, 0, 7]);
qy = array1d(1..12, [0, 0, 0, 4, 10, 3, 5, 8, 0, 0, 14, 11]);
----------
qx = array1d(1..12, [7, 14, 0, 14, 14, 7, 0, 10, 10, 3, 0, 7]);
qy = array1d(1..12, [0, 0, 0, 4, 10, 3, 5, 8, 0, 0, 14, 11]);
----------
qx = array1d(1..12, [14, 7, 4, 7, 7, 14, 4, 10, 10, 0, 0, 10]);
qy = array1d(1..12, [0, 0, 0, 4, 10, 3, 5, 8, 0, 0, 14, 11]);
----------
qx = array1d(1..12, [10, 7, 4, 7, 7, 10, 4, 13, 13, 0, 0, 10]);
qy = array1d(1..12, [0, 0, 0, 4, 10, 3, 5, 8, 0, 0, 14, 11]);
----------
qx = array1d(1..12, [14, 7, 0, 7, 7, 14, 0, 10, 10, 3, 0, 10]);
qy = array1d(1..12, [0, 0, 0, 4, 10, 3, 5, 8, 0, 0, 14, 11]);
----------
qx = array1d(1..12, [10, 7, 0, 7, 7, 10, 0, 13, 13, 3, 0, 10]);
qy = array1d(1..12, [0, 0, 0, 4, 10, 3, 5, 8, 0, 0, 14, 11]);
----------
qx = array1d(1..12, [14, 0, 7, 0, 0, 14, 7, 10, 10, 3, 3, 10]);
qy = array1d(1..12, [0, 0, 0, 4, 10, 3, 5, 8, 0, 0, 14, 11]);
----------
qx = array1d(1..12, [10, 0, 7, 0, 0, 10, 7, 13, 13, 3, 3, 10]);
qy = array1d(1..12, [0, 0, 0, 4, 10, 3, 5, 8, 0, 0, 14, 11]);
----------
qx = array1d(1..12, [14, 0, 3, 0, 0, 14, 3, 10, 10, 6, 3, 10]);
qy = array1d(1..12, [0, 0, 0, 4, 10, 3, 5, 8, 0, 0, 14, 11]);
----------
qx = array1d(1..12, [10, 0, 3, 0, 0, 10, 3, 13, 13, 6, 3, 10]);
qy = array1d(1..12, [0, 0, 0, 4, 10, 3, 5, 8, 0, 0, 14, 11]);
----------
qx = array1d(1..12, [11, 14, 4, 14, 14, 11, 4, 7, 7, 0, 0, 7]);
qy = array1d(1..12, [0, 0, 0, 4, 10, 9, 5, 0, 9, 0, 14, 3]);
----------
qx = array1d(1..12, [7, 14, 4, 14, 14, 11, 4, 10, 7, 0, 0, 7]);
qy = array1d(1..12, [0, 0, 0, 4, 10, 9, 5, 0, 9, 0, 14, 3]);
----------
qx = array1d(1..12, [11, 14, 4, 14, 14, 7, 4, 7, 10, 0, 0, 7]);
qy = array1d(1..12, [0, 0, 0, 4, 10, 9, 5, 0, 9, 0, 14, 3]);
----------
qx = array1d(1..12, [7, 14, 4, 14, 14, 7, 4, 10, 10, 0, 0, 7]);
qy = array1d(1..12, [0, 0, 0, 4, 10, 9, 5, 0, 9, 0, 14, 3]);
----------
qx = array1d(1..12, [11, 14, 0, 14, 14, 11, 0, 7, 7, 3, 0, 7]);
qy = array1d(1..12, [0, 0, 0, 4, 10, 9, 5, 0, 9, 0, 14, 3]);
----------
qx = array1d(1..12, [7, 14, 0, 14, 14, 11, 0, 10, 7, 3, 0, 7]);
qy = array1d(1..12, [0, 0, 0, 4, 10, 9, 5, 0, 9, 0, 14, 3]);
----------
qx = array1d(1..12, [11, 14, 0, 14, 14, 7, 0, 7, 10, 3, 0, 7]);
qy = array1d(1..12, [0, 0, 0, 4, 10, 9, 5, 0, 9, 0, 14, 3]);
----------
qx = array1d(1..12, [7, 14, 0, 14, 14, 7, 0, 10, 10, 3, 0, 7]);
qy = array1d(1..12, [0, 0, 0, 4, 10, 9, 5, 0, 9, 0, 14, 3]);
----------
qx = array1d(1..12, [14, 7, 4, 7, 7, 14, 4, 10, 10, 0, 0, 10]);
qy = array1d(1..12, [0, 0, 0, 4, 10, 9, 5, 0, 9, 0, 14, 3]);
----------
qx = array1d(1..12, [10, 7, 4, 7, 7, 14, 4, 13, 10, 0, 0, 10]);
qy = array1d(1..12, [0, 0, 0, 4, 10, 9, 5, 0, 9, 0, 14, 3]);
----------
qx = array1d(1..12, [14, 7, 4, 7, 7, 10, 4, 10, 13, 0, 0, 10]);
qy = array1d(1..12, [0, 0, 0, 4, 10, 9, 5, 0, 9, 0, 14, 3]);
----------
qx = array1d(1..12, [10, 7, 4, 7, 7, 10, 4, 13, 13, 0, 0, 10]);
qy = array1d(1..12, [0, 0, 0, 4, 10, 9, 5, 0, 9, 0, 14, 3]);
----------
qx = array1d(1..12, [14, 7, 0, 7, 7, 14, 0, 10, 10, 3, 0, 10]);
qy = array1d(1..12, [0, 0, 0, 4, 10, 9, 5, 0, 9, 0, 14, 3]);
----------
qx = array1d(1..12, [10, 7, 0, 7, 7, 14, 0, 13, 10, 3, 0, 10]);
qy = array1d(1..12, [0, 0, 0, 4, 10, 9, 5, 0, 9, 0, 14, 3]);
----------
qx = array1d(1..12, [14, 7, 0, 7, 7, 10, 0, 10, 13, 3, 0, 10]);
qy = array1d(1..12, [0, 0, 0, 4, 10, 9, 5, 0, 9, 0, 14, 3]);
----------
qx = array1d(1..12, [10, 7, 0, 7, 7, 10, 0, 13, 13, 3, 0, 10]);
qy = array1d(1..12, [0, 0, 0, 4, 10, 9, 5, 0, 9, 0, 14, 3]);
----------
qx = array1d(1..12, [14, 0, 7, 0, 0, 14, 7, 10, 10, 3, 3, 10]);
qy = array1d(1..12, [0, 0, 0, 4, 10, 9, 5, 0, 9, 0, 14, 3]);
----------
qx = array1d(1..12, [10, 0, 7, 0, 0, 14, 7, 13, 10, 3, 3, 10]);
qy = array1d(1..12, [0, 0, 0, 4, 10, 9, 5, 0, 9, 0, 14, 3]);
----------
qx = array1d(1..12, [14, 0, 3, 0, 0, 14, 3, 10, 10, 6, 3, 10]);
qy = array1d(1..12, [0, 0, 0, 4, 10, 9, 5, 0, 9, 0, 14, 3]);
----------
qx = array1d(1..12, [10, 0, 3, 0, 0, 14, 3, 13, 10, 6, 3, 10]);
qy = array1d(1..12, [0, 0, 0, 4, 10, 9, 5, 0, 9, 0, 14, 3]);
----------
qx = array1d(1..12, [14, 0, 7, 0, 0, 10, 7, 10, 13, 3, 3, 10]);
qy = array1d(1..12, [0, 0, 0, 4, 10, 9, 5, 0, 9, 0, 14, 3]);
----------
qx = array1d(1..12, [10, 0, 7, 0, 0, 10, 7, 13, 13, 3, 3, 10]);
qy = array1d(1..12, [0, 0, 0, 4, 10, 9, 5, 0, 9, 0, 14, 3]);
----------
qx = array1d(1..12, [14, 0, 3, 0, 0, 10, 3, 10, 13, 6, 3, 10]);
qy = array1d(1..12, [0, 0, 0, 4, 10, 9, 5, 0, 9, 0, 14, 3]);
----------
qx = array1d(1..12, [10, 0, 3, 0, 0, 10, 3, 13, 13, 6, 3, 10]);
qy = array1d(1..12, [0, 0, 0, 4, 10, 9, 5, 0, 9, 0, 14, 3]);
----------
qx = array1d(1..12, [11, 14, 4, 14, 14, 11, 4, 7, 7, 0, 0, 7]);
qy = array1d(1..12, [0, 0, 0, 11, 4, 3, 5, 0, 3, 0, 14, 11]);
----------
qx = array1d(1..12, [7, 14, 4, 14, 14, 11, 4, 10, 7, 0, 0, 7]);
qy = array1d(1..12, [0, 0, 0, 11, 4, 3, 5, 0, 3, 0, 14, 11]);
----------
qx = array1d(1..12, [14, 11, 4, 14, 11, 14, 4, 7, 7, 0, 0, 7]);
qy = array1d(1..12, [0, 0, 0, 11, 4, 3, 5, 0, 3, 0, 14, 11]);
----------
qx = array1d(1..12, [11, 14, 4, 14, 14, 7, 4, 7, 10, 0, 0, 7]);
qy = array1d(1..12, [0, 0, 0, 11, 4, 3, 5, 0, 3, 0, 14, 11]);
----------
qx = array1d(1..12, [7, 14, 4, 14, 14, 7, 4, 10, 10, 0, 0, 7]);
qy = array1d(1..12, [0, 0, 0, 11, 4, 3, 5, 0, 3, 0, 14, 11]);
----------
qx = array1d(1..12, [14, 7, 4, 14, 7, 14, 4, 10, 10, 0, 0, 7]);
qy = array1d(1..12, [0, 0, 0, 11, 4, 3, 5, 0, 3, 0, 14, 11]);
----------
qx = array1d(1..12, [10, 7, 4, 14, 7, 14, 4, 13, 10, 0, 0, 7]);
qy = array1d(1..12, [0, 0, 0, 11, 4, 3, 5, 0, 3, 0, 14, 11]);
----------
qx = array1d(1..12, [7, 10, 4, 14, 10, 7, 4, 13, 13, 0, 0, 7]);
qy = array1d(1..12, [0, 0, 0, 11, 4, 3, 5, 0, 3, 0, 14, 11]);
----------
qx = array1d(1..12, [14, 7, 4, 14, 7, 10, 4, 10, 13, 0, 0, 7]);
qy = array1d(1..12, [0, 0, 0, 11, 4, 3, 5, 0, 3, 0, 14, 11]);
----------
qx = array1d(1..12, [10, 7, 4, 14, 7, 10, 4, 13, 13, 0, 0, 7]);
qy = array1d(1..12, [0, 0, 0, 11, 4, 3, 5, 0, 3, 0, 14, 11]);
----------
qx = array1d(1..12, [11, 14, 0, 14, 14, 11, 0, 7, 7, 3, 0, 7]);
qy = array1d(1..12, [0, 0, 0, 11, 4, 3, 5, 0, 3, 0, 14, 11]);
----------
qx = array1d(1..12, [7, 14, 0, 14, 14, 11, 0, 10, 7, 3, 0, 7]);
qy = array1d(1..12, [0, 0, 0, 11, 4, 3, 5, 0, 3, 0, 14, 11]);
----------
qx = array1d(1..12, [14, 11, 0, 14, 11, 14, 0, 7, 7, 3, 0, 7]);
qy = array1d(1..12, [0, 0, 0, 11, 4, 3, 5, 0, 3, 0, 14, 11]);
----------
[ 99 more solutions ]
qx = array1d(1..12, [14, 7, 14, 0, 7, 0, 14, 10, 10, 3, 0, 7]);
qy = array1d(1..12, [0, 0, 3, 0, 4, 6, 8, 0, 3, 0, 14, 11]);
----------
[ 199 more solutions ]
qx = array1d(1..12, [4, 14, 4, 14, 14, 11, 4, 0, 7, 0, 7, 7]);
qy = array1d(1..12, [0, 0, 3, 4, 10, 3, 8, 14, 3, 0, 0, 11]);
----------
[ 399 more solutions ]
qx = array1d(1..12, [7, 4, 7, 4, 4, 14, 14, 0, 10, 0, 7, 7]);
qy = array1d(1..12, [0, 0, 3, 11, 4, 0, 8, 14, 0, 0, 14, 8]);
----------
[ 799 more solutions ]
qx = array1d(1..12, [7, 4, 14, 4, 4, 11, 14, 0, 7, 0, 10, 7]);
qy = array1d(1..12, [0, 0, 12, 4, 10, 9, 3, 14, 9, 0, 0, 3]);
----------
[ 1599 more solutions ]
qx = array1d(1..12, [4, 14, 11, 14, 14, 4, 11, 0, 7, 0, 7, 4]);
qy = array1d(1..12, [0, 6, 12, 0, 10, 9, 3, 14, 9, 0, 0, 3]);
----------
[ 3199 more solutions ]
qx = array1d(1..12, [14, 11, 14, 11, 11, 8, 14, 7, 4, 0, 0, 4]);
qy = array1d(1..12, [0, 13, 12, 7, 0, 0, 3, 14, 0, 0, 14, 8]);
----------
[ 6399 more solutions ]
qx = array1d(1..12, [14, 7, 0, 7, 7, 10, 0, 10, 13, 3, 0, 10]);
qy = array1d(1..12, [8, 13, 0, 0, 6, 0, 5, 8, 0, 0, 14, 11]);
----------
[ 11662 more solutions ]
qx = array1d(1..12, [0, 14, 0, 7, 14, 7, 0, 3, 10, 3, 7, 10]);
qy = array1d(1..12, [14, 13, 9, 8, 6, 0, 0, 14, 6, 0, 14, 0]);
----------
==========
%%%mzn-stat: initTime=0.005
%%%mzn-stat: solveTime=154.228
%%%mzn-stat: solutions=24464
%%%mzn-stat: variables=314
%%%mzn-stat: propagators=335
%%%mzn-stat: propagations=382287065
%%%mzn-stat: nodes=12476611
%%%mzn-stat: failures=6213842
%%%mzn-stat: restarts=0
%%%mzn-stat: peakDepth=42
%%%mzn-stat-end
Finished in 2m 34s

